(set-info :source |printed by MathSAT|)
(declare-fun |.x{1}| () Int)
(declare-fun |.x{390}| () Int)
(declare-fun |.x{31}| () Int)
(declare-fun |.x{391}| () Int)
(declare-fun |.x{3}| () Int)
(declare-fun |.x{392}| () Int)
(declare-fun |.x{33}| () (Array Int Int))
(declare-fun |.x{393}| () (Array Int Int))
(declare-fun |.x{5}| () (Array Int Int))
(declare-fun |.x{394}| () (Array Int Int))
(declare-fun |.x{6}| () (Array Int (Array Int Int)))
(declare-fun |.x{395}| () (Array Int (Array Int Int)))
(declare-fun |.x{36}| () Int)
(declare-fun |.x{396}| () Int)
(declare-fun |.x{8}| () Int)
(declare-fun |.x{397}| () Int)
(declare-fun |.x{38}| () Int)
(declare-fun |.x{398}| () Int)
(declare-fun |.x{10}| () Int)
(declare-fun |.x{399}| () Int)
(declare-fun |.x{40}| () Int)
(declare-fun |.x{400}| () Int)
(declare-fun |.x{12}| () Int)
(declare-fun |.x{401}| () Int)
(declare-fun |.x{42}| () (Array Int Int))
(declare-fun |.x{402}| () (Array Int Int))
(declare-fun |.x{14}| () (Array Int Int))
(declare-fun |.x{403}| () (Array Int Int))
(declare-fun |.x{44}| () Int)
(declare-fun |.x{404}| () Int)
(declare-fun |.x{16}| () Int)
(declare-fun |.x{405}| () Int)
(declare-fun |.x{46}| () Int)
(declare-fun |.x{406}| () Int)
(declare-fun |.x{18}| () Int)
(declare-fun |.x{407}| () Int)
(declare-fun |.x{19}| () Int)
(declare-fun |.x{408}| () Int)
(declare-fun |.x{20}| () Int)
(declare-fun |.x{409}| () Int)
(declare-fun |.x{21}| () Int)
(declare-fun |.x{410}| () Int)
(declare-fun |.x{22}| () Int)
(declare-fun |.x{411}| () Int)
(declare-fun |.x{23}| () Int)
(declare-fun |.x{412}| () Int)
(declare-fun |.x{24}| () Int)
(declare-fun |.x{413}| () Int)
(declare-fun |.x{25}| () Int)
(declare-fun |.x{414}| () Int)
(declare-fun |.x{26}| () Int)
(declare-fun |.x{415}| () Int)
(declare-fun |.x{27}| () Int)
(declare-fun |.x{416}| () Int)
(declare-fun |.x{28}| () Int)
(declare-fun |.x{417}| () Int)
(declare-fun |.x{29}| () Bool)
(declare-fun |.x{360}| () Bool)
(declare-fun |.loc{3}| () Bool)
(declare-fun |.loc{5}| () Bool)
(declare-fun |.loc{4}| () Bool)
(declare-fun |.loc{6}| () Bool)
(define-fun .def_68 () Bool (! |.loc{4}| :next |.loc{6}|))
(define-fun .def_210 () Bool (not .def_68))
(define-fun .def_66 () Bool (! |.loc{3}| :next |.loc{5}|))
(define-fun .def_117 () Bool (not .def_66))
(define-fun .def_249 () Bool (and .def_117 .def_210))
(define-fun .def_42 () Int (! |.x{18}| :next |.x{407}|))
(define-fun .def_40 () Int (! |.x{46}| :next |.x{406}|))
(define-fun .def_240 () Bool (= .def_40 .def_42))
(define-fun .def_38 () Int (! |.x{16}| :next |.x{405}|))
(define-fun .def_36 () Int (! |.x{44}| :next |.x{404}|))
(define-fun .def_239 () Bool (= .def_36 .def_38))
(define-fun .def_241 () Bool (and .def_239 .def_240))
(define-fun .def_12 () Int (! |.x{3}| :next |.x{392}|))
(define-fun .def_10 () Int (! |.x{31}| :next |.x{391}|))
(define-fun .def_238 () Bool (= .def_10 .def_12))
(define-fun .def_242 () Bool (and .def_238 .def_241))
(define-fun .def_64 () Bool (! |.x{29}| :next |.x{360}|))
(define-fun .def_237 () Bool (not .def_64))
(define-fun .def_243 () Bool (and .def_237 .def_242))
(define-fun .def_30 () Int (! |.x{12}| :next |.x{401}|))
(define-fun .def_28 () Int (! |.x{40}| :next |.x{400}|))
(define-fun .def_236 () Bool (= .def_28 .def_30))
(define-fun .def_244 () Bool (and .def_236 .def_243))
(define-fun .def_26 () Int (! |.x{10}| :next |.x{399}|))
(define-fun .def_24 () Int (! |.x{38}| :next |.x{398}|))
(define-fun .def_235 () Bool (= .def_24 .def_26))
(define-fun .def_245 () Bool (and .def_235 .def_244))
(define-fun .def_22 () Int (! |.x{8}| :next |.x{397}|))
(define-fun .def_20 () Int (! |.x{36}| :next |.x{396}|))
(define-fun .def_234 () Bool (= .def_20 .def_22))
(define-fun .def_246 () Bool (and .def_234 .def_245))
(define-fun .def_16 () (Array Int Int) (! |.x{5}| :next |.x{394}|))
(define-fun .def_14 () (Array Int Int) (! |.x{33}| :next |.x{393}|))
(define-fun .def_233 () Bool (= .def_14 .def_16))
(define-fun .def_247 () Bool (and .def_233 .def_246))
(define-fun .def_34 () (Array Int Int) (! |.x{14}| :next |.x{403}|))
(define-fun .def_32 () (Array Int Int) (! |.x{42}| :next |.x{402}|))
(define-fun .def_232 () Bool (= .def_32 .def_34))
(define-fun .def_248 () Bool (and .def_232 .def_247))
(define-fun .def_250 () Bool (! (and .def_248 .def_249) :init true))
(define-fun .def_229 () Bool (= .def_42 |.x{407}|))
(define-fun .def_227 () Bool (= .def_38 |.x{405}|))
(define-fun .def_225 () Bool (= .def_34 |.x{403}|))
(define-fun .def_223 () Bool (= .def_30 |.x{401}|))
(define-fun .def_221 () Bool (= .def_26 |.x{399}|))
(define-fun .def_219 () Bool (= .def_22 |.x{397}|))
(define-fun .def_18 () (Array Int (Array Int Int)) (! |.x{6}| :next |.x{395}|))
(define-fun .def_217 () Bool (= .def_18 |.x{395}|))
(define-fun .def_215 () Bool (= .def_16 |.x{394}|))
(define-fun .def_213 () Bool (= .def_12 |.x{392}|))
(define-fun .def_8 () Int (! |.x{1}| :next |.x{390}|))
(define-fun .def_211 () Bool (= .def_8 |.x{390}|))
(define-fun .def_212 () Bool (and .def_210 .def_211))
(define-fun .def_214 () Bool (and .def_212 .def_213))
(define-fun .def_216 () Bool (and .def_214 .def_215))
(define-fun .def_218 () Bool (and .def_216 .def_217))
(define-fun .def_220 () Bool (and .def_218 .def_219))
(define-fun .def_222 () Bool (and .def_220 .def_221))
(define-fun .def_224 () Bool (and .def_222 .def_223))
(define-fun .def_226 () Bool (and .def_224 .def_225))
(define-fun .def_228 () Bool (and .def_226 .def_227))
(define-fun .def_230 () Bool (and .def_228 .def_229))
(define-fun .def_205 () Bool (not |.loc{5}|))
(define-fun .def_206 () Bool (and |.loc{6}| .def_205))
(define-fun .def_132 () Bool (= |.x{409}| |.x{415}|))
(define-fun .def_130 () Bool (= |.x{412}| |.x{414}|))
(define-fun .def_200 () Bool (and .def_130 .def_132))
(define-fun .def_201 () Bool (or .def_64 .def_200))
(define-fun .def_150 () Bool (= |.x{414}| |.x{416}|))
(define-fun .def_148 () Bool (= |.x{408}| |.x{415}|))
(define-fun .def_146 () Bool (= |.x{409}| |.x{411}|))
(define-fun .def_144 () Bool (= |.x{412}| |.x{417}|))
(define-fun .def_140 () Bool (= |.x{404}| |.x{417}|))
(define-fun .def_139 () Bool (= |.x{396}| |.x{416}|))
(define-fun .def_141 () Bool (and .def_139 .def_140))
(define-fun .def_138 () Bool (= |.x{391}| |.x{411}|))
(define-fun .def_142 () Bool (and .def_138 .def_141))
(define-fun .def_137 () Bool (= |.x{400}| |.x{408}|))
(define-fun .def_143 () Bool (and .def_137 .def_142))
(define-fun .def_145 () Bool (and .def_143 .def_144))
(define-fun .def_147 () Bool (and .def_145 .def_146))
(define-fun .def_149 () Bool (and .def_147 .def_148))
(define-fun .def_151 () Bool (and .def_149 .def_150))
(define-fun .def_198 () Bool (or .def_64 .def_151))
(define-fun .def_85 () (Array Int Int) (store .def_14 0 0))
(define-fun .def_86 () (Array Int Int) (store .def_85 |.x{396}| 1))
(define-fun .def_112 () Int (select .def_86 |.x{404}|))
(define-fun .def_113 () Bool (= .def_112 0))
(define-fun .def_109 () Bool (= |.x{396}| 0))
(define-fun .def_110 () Bool (not .def_109))
(define-fun .def_107 () Bool (= |.x{391}| 0))
(define-fun .def_104 () Int (select .def_85 |.x{396}|))
(define-fun .def_105 () Bool (= .def_104 0))
(define-fun .def_102 () Bool (= |.x{398}| 0))
(define-fun .def_99 () Bool (= |.x{404}| 0))
(define-fun .def_100 () Bool (not .def_99))
(define-fun .def_95 () (Array Int Int) (select .def_18 |.x{396}|))
(define-fun .def_96 () Int (select .def_95 |.x{400}|))
(define-fun .def_97 () Bool (= .def_96 0))
(define-fun .def_93 () Bool (= |.x{400}| 0))
(define-fun .def_90 () Bool (<= .def_8 |.x{396}|))
(define-fun .def_91 () Bool (not .def_90))
(define-fun .def_87 () (Array Int Int) (store .def_86 |.x{404}| 1))
(define-fun .def_88 () Bool (= |.x{393}| .def_87))
(define-fun .def_82 () Bool (= |.x{406}| 0))
(define-fun .def_78 () (Array Int Int) (select .def_18 |.x{404}|))
(define-fun .def_79 () Int (select .def_78 |.x{391}|))
(define-fun .def_80 () Bool (= .def_79 0))
(define-fun .def_74 () Bool (<= .def_8 |.x{404}|))
(define-fun .def_75 () Bool (not .def_74))
(define-fun .def_71 () (Array Int Int) (store .def_32 |.x{396}| 4))
(define-fun .def_72 () (Array Int Int) (store .def_71 |.x{404}| 4))
(define-fun .def_73 () Bool (= |.x{402}| .def_72))
(define-fun .def_76 () Bool (and .def_73 .def_75))
(define-fun .def_81 () Bool (and .def_76 .def_80))
(define-fun .def_83 () Bool (and .def_81 .def_82))
(define-fun .def_89 () Bool (and .def_83 .def_88))
(define-fun .def_92 () Bool (and .def_89 .def_91))
(define-fun .def_94 () Bool (and .def_92 .def_93))
(define-fun .def_98 () Bool (and .def_94 .def_97))
(define-fun .def_101 () Bool (and .def_98 .def_100))
(define-fun .def_103 () Bool (and .def_101 .def_102))
(define-fun .def_106 () Bool (and .def_103 .def_105))
(define-fun .def_108 () Bool (and .def_106 .def_107))
(define-fun .def_111 () Bool (and .def_108 .def_110))
(define-fun .def_114 () Bool (and .def_111 .def_113))
(define-fun .def_115 () Bool (or .def_64 .def_114))
(define-fun .def_194 () Bool (and .def_115 .def_117))
(define-fun .def_195 () Bool (and .def_115 .def_194))
(define-fun .def_196 () Bool (and |.x{360}| .def_195))
(define-fun .def_197 () Bool (and |.x{360}| .def_196))
(define-fun .def_199 () Bool (and .def_197 .def_198))
(define-fun .def_202 () Bool (and .def_199 .def_201))
(define-fun .def_48 () Int (! |.x{21}| :next |.x{410}|))
(define-fun .def_122 () Bool (= .def_48 |.x{410}|))
(define-fun .def_203 () Bool (and .def_122 .def_202))
(define-fun .def_191 () Bool (= |.x{413}| 0))
(define-fun .def_192 () Bool (or .def_64 .def_191))
(define-fun .def_189 () Bool (= .def_10 |.x{391}|))
(define-fun .def_187 () Bool (= .def_14 |.x{393}|))
(define-fun .def_185 () Bool (= .def_20 |.x{396}|))
(define-fun .def_183 () Bool (= .def_24 |.x{398}|))
(define-fun .def_181 () Bool (= .def_28 |.x{400}|))
(define-fun .def_178 () Bool (= .def_32 |.x{402}|))
(define-fun .def_176 () Bool (= .def_36 |.x{404}|))
(define-fun .def_174 () Bool (= .def_40 |.x{406}|))
(define-fun .def_44 () Int (! |.x{19}| :next |.x{408}|))
(define-fun .def_172 () Bool (= .def_44 |.x{408}|))
(define-fun .def_46 () Int (! |.x{20}| :next |.x{409}|))
(define-fun .def_170 () Bool (= .def_46 |.x{409}|))
(define-fun .def_50 () Int (! |.x{22}| :next |.x{411}|))
(define-fun .def_168 () Bool (= .def_50 |.x{411}|))
(define-fun .def_52 () Int (! |.x{23}| :next |.x{412}|))
(define-fun .def_166 () Bool (= .def_52 |.x{412}|))
(define-fun .def_56 () Int (! |.x{25}| :next |.x{414}|))
(define-fun .def_164 () Bool (= .def_56 |.x{414}|))
(define-fun .def_58 () Int (! |.x{26}| :next |.x{415}|))
(define-fun .def_162 () Bool (= .def_58 |.x{415}|))
(define-fun .def_60 () Int (! |.x{27}| :next |.x{416}|))
(define-fun .def_160 () Bool (= .def_60 |.x{416}|))
(define-fun .def_62 () Int (! |.x{28}| :next |.x{417}|))
(define-fun .def_158 () Bool (= .def_62 |.x{417}|))
(define-fun .def_155 () Bool (= |.x{410}| |.x{413}|))
(define-fun .def_156 () Bool (or |.x{360}| .def_155))
(define-fun .def_125 () Bool (= .def_64 |.x{360}|))
(define-fun .def_157 () Bool (and .def_125 .def_156))
(define-fun .def_159 () Bool (and .def_157 .def_158))
(define-fun .def_161 () Bool (and .def_159 .def_160))
(define-fun .def_163 () Bool (and .def_161 .def_162))
(define-fun .def_165 () Bool (and .def_163 .def_164))
(define-fun .def_167 () Bool (and .def_165 .def_166))
(define-fun .def_169 () Bool (and .def_167 .def_168))
(define-fun .def_171 () Bool (and .def_169 .def_170))
(define-fun .def_173 () Bool (and .def_171 .def_172))
(define-fun .def_175 () Bool (and .def_173 .def_174))
(define-fun .def_177 () Bool (and .def_175 .def_176))
(define-fun .def_179 () Bool (and .def_177 .def_178))
(define-fun .def_180 () Bool (and .def_66 .def_179))
(define-fun .def_182 () Bool (and .def_180 .def_181))
(define-fun .def_184 () Bool (and .def_182 .def_183))
(define-fun .def_186 () Bool (and .def_184 .def_185))
(define-fun .def_188 () Bool (and .def_186 .def_187))
(define-fun .def_190 () Bool (and .def_188 .def_189))
(define-fun .def_193 () Bool (and .def_190 .def_192))
(define-fun .def_204 () Bool (or .def_193 .def_203))
(define-fun .def_207 () Bool (and .def_204 .def_206))
(define-fun .def_152 () Bool (or |.x{360}| .def_151))
(define-fun .def_133 () Bool (not .def_132))
(define-fun .def_131 () Bool (not .def_130))
(define-fun .def_134 () Bool (or .def_131 .def_133))
(define-fun .def_135 () Bool (or |.x{360}| .def_134))
(define-fun .def_126 () Bool (and .def_115 .def_125))
(define-fun .def_127 () Bool (and .def_117 .def_126))
(define-fun .def_119 () Bool (not |.loc{6}|))
(define-fun .def_128 () Bool (and .def_119 .def_127))
(define-fun .def_129 () Bool (and |.loc{5}| .def_128))
(define-fun .def_136 () Bool (and .def_129 .def_135))
(define-fun .def_153 () Bool (and .def_136 .def_152))
(define-fun .def_154 () Bool (and .def_122 .def_153))
(define-fun .def_208 () Bool (or .def_154 .def_207))
(define-fun .def_116 () Bool (and |.x{360}| .def_115))
(define-fun .def_118 () Bool (and .def_116 .def_117))
(define-fun .def_120 () Bool (and .def_118 .def_119))
(define-fun .def_121 () Bool (and |.loc{5}| .def_120))
(define-fun .def_123 () Bool (and .def_121 .def_122))
(define-fun .def_124 () Bool (and .def_64 .def_123))
(define-fun .def_209 () Bool (or .def_124 .def_208))
(define-fun .def_231 () Bool (! (and .def_209 .def_230) :trans true))
(define-fun .def_54 () Int (! |.x{24}| :next |.x{413}|))
(define-fun .def_251 () Bool (and .def_68 .def_117))
(define-fun .def_252 () Bool (and .def_64 .def_251))
(define-fun .def_253 () Bool (! (not .def_252) :invar-property 0))
(assert true)
